1 1 -2 0
1 -3 -4 0
1 -3 2 0
1 5 6 0
1 7 6 0
1 -7 8 0
1 -9 10 0
1 9 11 0
1 -2 3 0
1 2 5 0
1 -12 13 0
1 12 -7 0
1 8 -14 0
1 8 13 0
1 8 12 0
1 -8 15 0
1 11 -16 0
1 -11 -17 0
1 16 11 0
1 -18 19 0
1 18 -20 0
1 -18 -9 0
1 10 19 0
1 -17 10 0
1 -17 21 0
1 6 -16 0
1 -6 22 0
1 6 5 0
1 6 -23 0
1 -19 -7 0
1 -24 -25 0
1 -26 25 0
1 -26 -14 0
1 -26 27 0
1 -21 28 0
1 21 -27 0
1 -29 30 0
1 20 31 0
1 -20 30 0
1 20 21 0
1 -32 -33 0
1 27 -10 0
1 -27 24 0
1 -27 23 0
1 -34 4 0
1 35 -36 0
1 35 37 0
1 35 -38 0
1 39 -40 0
1 39 -41 0
1 39 -35 0
1 -36 -39 0
1 -36 -4 0
1 36 42 0
1 36 -43 0
1 37 43 0
1 -44 -45 0
1 44 -4 0
1 44 42 0
1 -44 46 0
1 41 47 0
1 -48 -49 0
1 -48 50 0
1 48 -12 0
1 -43 13 0
1 43 46 0
1 13 -38 0
1 13 51 0
1 -13 -43 0
1 -50 52 0
1 50 -38 0
1 50 -49 0
1 50 43 0
1 -38 53 0
1 -38 14 0
1 38 -15 0
1 -40 42 0
1 40 -43 0
1 51 13 0
1 -51 48 0
1 -15 -12 0
1 -15 9 0
1 -14 -19 0
1 -14 -54 0
1 -22 19 0
1 -22 50 0
1 -22 55 0
1 -22 56 0
1 53 50 0
1 53 -57 0
1 -53 6 0
1 -58 -59 0
1 58 22 0
1 58 -43 0
1 -60 14 0
1 -60 61 0
1 -60 -15 0
1 -60 -62 0
1 57 -59 0
1 -57 63 0
1 57 64 0
1 -54 -52 0
1 -54 -59 0
1 54 65 0
1 61 25 0
1 -23 58 0
1 -23 56 0
1 -23 32 0
1 33 -55 0
1 33 66 0
1 67 -68 0
1 -56 -53 0
1 -56 -69 0
1 -56 33 0
1 56 70 0
1 -56 -71 0
1 -56 72 0
1 73 53 0
1 -73 2 0
1 -73 -71 0
1 -73 -74 0
1 -55 -53 0
1 -55 69 0
1 -55 33 0
1 55 61 0
1 -55 -22 0
1 55 66 0
1 -66 59 0
1 66 -23 0
1 -30 75 0
1 30 -74 0
1 -74 76 0
1 74 20 0
1 -74 29 0
1 77 -72 0
1 -77 -78 0
1 -77 -79 0
1 -72 75 0
1 -72 -80 0
1 -68 81 0
1 68 82 0
1 -79 -76 0
1 79 67 0
1 -76 -83 0
1 -76 77 0
1 -76 -30 0
1 76 -84 0
1 -76 72 0
1 85 -75 0
1 -85 86 0
1 -87 -71 0
1 -88 -68 0
1 88 86 0
1 88 -80 0
1 -89 -90 0
1 -89 -86 0
1 89 80 0
1 -80 -91 0
1 -80 -72 0
1 -31 -85 0
1 31 80 0
1 86 -90 0
1 86 -92 0
1 -90 -93 0
1 90 94 0
1 -90 92 0
1 -95 -96 0
1 -95 -97 0
1 98 4 0
1 -99 35 0
1 100 99 0
1 -101 -97 0
1 101 -98 0
1 -101 102 0
1 97 45 0
1 -97 -98 0
1 103 99 0
1 -96 -104 0
1 -96 -98 0
1 96 102 0
1 -96 95 0
1 -105 -45 0
1 -105 106 0
1 -105 -107 0
1 105 -108 0
1 -45 41 0
1 109 -44 0
1 -109 -106 0
1 109 -110 0
1 -111 112 0
1 -111 113 0
1 -111 109 0
1 111 42 0
1 -111 46 0
1 -111 -99 0
1 -107 -109 0
1 107 45 0
1 -107 -105 0
1 114 102 0
1 -114 -105 0
1 114 115 0
1 -114 99 0
1 106 112 0
1 42 -116 0
1 -42 -44 0
1 42 40 0
1 42 -41 0
1 42 -37 0
1 42 -102 0
1 117 -44 0
1 -117 14 0
1 117 -36 0
1 -117 -107 0
1 -117 -110 0
1 117 -51 0
1 117 -111 0
1 -118 22 0
1 -118 51 0
1 -113 -119 0
1 113 -51 0
1 116 120 0
1 -116 -109 0
1 -116 118 0
1 -121 52 0
1 -121 -117 0
1 121 -109 0
1 121 -64 0
1 121 -118 0
1 121 46 0
1 -122 123 0
1 110 -124 0
1 110 -125 0
1 -64 -52 0
1 -64 -51 0
1 64 54 0
1 52 -47 0
1 -52 -51 0
1 -63 -126 0
1 -63 -127 0
1 63 -128 0
1 65 129 0
1 65 -121 0
1 -65 -54 0
1 -119 36 0
1 119 78 0
1 119 -59 0
1 -119 64 0
1 119 65 0
1 130 -52 0
1 -126 47 0
1 126 118 0
1 -47 -126 0
1 -47 124 0
1 47 63 0
1 47 -131 0
1 47 -65 0
1 59 -57 0
1 -59 132 0
1 59 -54 0
1 -59 -62 0
1 62 119 0
1 62 57 0
1 -62 -54 0
1 78 -133 0
1 -78 55 0
1 -134 129 0
1 134 135 0
1 134 -133 0
1 134 -72 0
1 -134 136 0
1 -134 -131 0
1 -129 -137 0
1 129 -71 0
1 132 -69 0
1 -132 -59 0
1 -132 137 0
1 127 62 0
1 -128 -138 0
1 128 59 0
1 -128 134 0
1 -128 65 0
1 69 -133 0
1 71 69 0
1 71 129 0
1 83 84 0
1 83 -132 0
1 83 139 0
1 84 129 0
1 84 -136 0
1 -133 81 0
1 133 -140 0
1 -133 134 0
1 -139 -134 0
1 -139 -141 0
1 -135 136 0
1 -135 140 0
1 136 -142 0
1 136 83 0
1 -136 78 0
1 -136 -143 0
1 -136 -84 0
1 -81 76 0
1 -81 -79 0
1 81 139 0
1 -81 -144 0
1 -145 -76 0
1 -93 146 0
1 93 -133 0
1 -92 133 0
1 92 147 0
1 -92 -70 0
1 -70 -148 0
1 -70 149 0
1 -146 91 0
1 146 -150 0
1 147 83 0
1 -147 -92 0
1 -147 151 0
1 144 -152 0
1 153 -154 0
1 -153 31 0
1 149 -155 0
1 -149 -156 0
1 149 -82 0
1 -149 157 0
1 -158 -146 0
1 -158 155 0
1 -158 159 0
1 -82 160 0
1 82 161 0
1 82 -149 0
1 154 93 0
1 -154 -149 0
1 -162 -163 0
1 162 -92 0
1 162 164 0
1 161 155 0
1 161 -157 0
1 -165 -94 0
1 160 -155 0
1 -160 157 0
1 160 -166 0
1 167 94 0
1 166 155 0
1 -166 158 0
1 -166 168 0
1 166 149 0
1 155 165 0
1 -155 168 0
1 -155 160 0
1 155 -149 0
1 -157 -94 0
1 -157 -165 0
1 157 169 0
1 -94 170 0
1 94 -171 0
1 -94 172 0
1 94 168 0
1 173 -174 0
1 173 175 0
1 -176 -177 0
1 -176 -175 0
1 -178 -179 0
1 -178 99 0
1 -180 181 0
1 180 182 0
1 -174 -183 0
1 174 184 0
1 174 -173 0
1 175 180 0
1 175 185 0
1 175 173 0
1 -186 187 0
1 -186 188 0
1 -186 180 0
1 186 -189 0
1 190 187 0
1 -190 -180 0
1 190 -191 0
1 -190 178 0
1 108 192 0
1 108 -174 0
1 108 -179 0
1 -108 193 0
1 -192 -45 0
1 -184 -194 0
1 -184 104 0
1 -184 174 0
1 184 -195 0
1 -184 182 0
1 -104 96 0
1 104 109 0
1 104 -193 0
1 -104 184 0
1 193 -196 0
1 -193 -102 0
1 193 -108 0
1 182 197 0
1 -182 -198 0
1 -182 180 0
1 -182 196 0
1 179 199 0
1 179 192 0
1 179 -191 0
1 200 -192 0
1 -102 -106 0
1 201 -202 0
1 203 -194 0
1 203 -118 0
1 195 204 0
1 195 205 0
1 195 184 0
1 204 112 0
1 204 -198 0
1 204 206 0
1 -204 207 0
1 -208 201 0
1 -208 209 0
1 208 196 0
1 -194 210 0
1 -194 211 0
1 -194 208 0
1 194 -207 0
1 -206 -212 0
1 206 64 0
1 206 -213 0
1 112 -52 0
1 112 -107 0
1 -214 195 0
1 -214 215 0
1 -216 -195 0
1 216 -217 0
1 216 -215 0
1 -213 112 0
1 213 -198 0
1 -213 124 0
1 218 97 0
1 218 -214 0
1 -218 -213 0
1 217 207 0
1 -217 -216 0
1 212 -219 0
1 -212 -220 0
1 -212 214 0
1 -124 -121 0
1 -221 -126 0
1 -221 222 0
1 -221 -124 0
1 -223 126 0
1 -223 -78 0
1 131 -223 0
1 -131 224 0
1 -131 123 0
1 215 -221 0
1 -224 -124 0
1 -224 225 0
1 -224 215 0
1 -115 -223 0
1 -115 -226 0
1 -115 216 0
1 -227 -219 0
1 227 -224 0
1 227 130 0
1 -227 -228 0
1 227 -123 0
1 228 120 0
1 228 -224 0
1 228 71 0
1 -228 229 0
1 230 120 0
1 230 125 0
1 -230 -231 0
1 -231 232 0
1 -231 -128 0
1 -231 -215 0
1 -120 227 0
1 -120 233 0
1 -120 228 0
1 -233 -234 0
1 -233 235 0
1 -233 -236 0
1 233 -231 0
1 123 -230 0
1 123 -227 0
1 -123 -131 0
1 -125 237 0
1 -125 -238 0
1 138 120 0
1 -138 -239 0
1 -138 129 0
1 -138 -137 0
1 -137 120 0
1 137 -240 0
1 -137 -225 0
1 -137 -132 0
1 234 -241 0
1 234 240 0
1 -143 -120 0
1 -143 92 0
1 143 -240 0
1 143 -242 0
1 -239 243 0
1 239 -159 0
1 -232 -142 0
1 232 243 0
1 -232 -159 0
1 244 -237 0
1 244 -126 0
1 240 237 0
1 240 234 0
1 -240 245 0
1 -142 133 0
1 -140 -246 0
1 140 -147 0
1 -140 235 0
1 -140 -232 0
1 140 247 0
1 -140 -139 0
1 -248 249 0
1 248 -159 0
1 248 242 0
1 -159 -241 0
1 159 -141 0
1 246 242 0
1 246 -129 0
1 -246 -250 0
1 -246 -251 0
1 -246 -164 0
1 242 246 0
1 -241 -127 0
1 -241 -252 0
1 -241 -253 0
1 241 -159 0
1 241 -248 0
1 -247 -254 0
1 -247 -248 0
1 150 146 0
1 -150 -162 0
1 150 -161 0
1 150 -141 0
1 152 -141 0
1 -152 -255 0
1 -164 256 0
1 -164 249 0
1 -164 242 0
1 -164 160 0
1 256 -257 0
1 256 -249 0
1 -258 -171 0
1 -258 -256 0
1 -258 -152 0
1 141 -152 0
1 -141 139 0
1 141 -259 0
1 -249 -260 0
1 -249 152 0
1 -249 164 0
1 -249 -150 0
1 249 248 0
1 -255 136 0
1 261 258 0
1 -261 148 0
1 -172 -162 0
1 172 -252 0
1 172 -261 0
1 -169 -262 0
1 169 258 0
1 169 -263 0
1 -171 -163 0
1 171 -264 0
1 -171 -265 0
1 -148 -168 0
1 148 169 0
1 -148 -261 0
1 266 146 0
1 266 -168 0
1 -151 -172 0
1 -257 267 0
1 -257 268 0
1 -257 -172 0
1 168 -269 0
1 170 -157 0
1 -270 -266 0
1 270 271 0
1 272 148 0
1 -272 273 0
1 265 272 0
1 265 -274 0
1 -265 82 0
1 265 275 0
1 -274 -276 0
1 -274 277 0
1 -274 -270 0
1 -274 -169 0
1 -274 -265 0
1 -163 -278 0
1 -163 -279 0
1 -280 -271 0
1 -275 271 0
1 -277 -265 0
1 277 273 0
1 277 281 0
1 -281 -277 0
1 -281 265 0
1 -281 273 0
1 -273 -166 0
1 -273 281 0
1 271 273 0
1 -282 276 0
1 282 -275 0
1 283 284 0
1 283 -282 0
1 283 281 0
1 285 -177 0
1 177 -285 0
1 -181 -180 0
1 181 -286 0
1 287 188 0
1 287 288 0
1 288 287 0
1 288 181 0
1 -286 -285 0
1 289 290 0
1 291 -292 0
1 291 293 0
1 291 108 0
1 188 186 0
1 188 -288 0
1 -188 293 0
1 294 -292 0
1 -294 -293 0
1 294 -184 0
1 187 -104 0
1 187 186 0
1 187 -288 0
1 -187 -295 0
1 296 -187 0
1 -296 -297 0
1 296 -291 0
1 293 -298 0
1 292 -181 0
1 -292 -295 0
1 -292 294 0
1 -295 181 0
1 -295 290 0
1 -191 -190 0
1 191 293 0
1 -191 299 0
1 -202 -300 0
1 202 191 0
1 -301 199 0
1 -301 -302 0
1 199 299 0
1 300 -187 0
1 300 -196 0
1 -302 -210 0
1 302 300 0
1 302 187 0
1 -302 -301 0
1 303 -298 0
1 303 304 0
1 -303 301 0
1 299 -305 0
1 299 191 0
1 299 -294 0
1 196 -197 0
1 196 -183 0
1 196 193 0
1 -197 -112 0
1 197 -194 0
1 197 -179 0
1 197 306 0
1 209 -307 0
1 209 -308 0
1 209 208 0
1 209 309 0
1 210 -189 0
1 210 -183 0
1 -183 -210 0
1 183 197 0
1 183 -220 0
1 183 -209 0
1 -183 185 0
1 -185 210 0
1 185 183 0
1 185 -301 0
1 189 -210 0
1 189 186 0
1 -189 -209 0
1 -306 189 0
1 306 310 0
1 -306 -311 0
1 205 -183 0
1 205 -312 0
1 205 217 0
1 -207 204 0
1 220 -212 0
1 220 313 0
1 220 185 0
1 313 -211 0
1 313 312 0
1 313 307 0
1 -313 217 0
1 307 -314 0
1 307 -220 0
1 -307 -226 0
1 -314 315 0
1 -314 316 0
1 314 -219 0
1 314 -209 0
1 -312 -317 0
1 -312 -310 0
1 -312 207 0
1 309 318 0
1 -309 209 0
1 -309 -317 0
1 -219 212 0
1 219 319 0
1 219 -217 0
1 -219 -229 0
1 -229 228 0
1 -229 -310 0
1 -320 -321 0
1 320 -319 0
1 -320 -322 0
1 -226 -323 0
1 -322 324 0
1 -322 -238 0
1 -322 320 0
1 325 322 0
1 -325 -313 0
1 319 -211 0
1 211 -319 0
1 -211 -226 0
1 -225 325 0
1 -225 -326 0
1 -225 -215 0
1 -324 -325 0
1 -324 -327 0
1 324 328 0
1 -324 125 0
1 324 123 0
1 329 -323 0
1 -329 327 0
1 326 -225 0
1 327 -329 0
1 -327 225 0
1 327 -326 0
1 -330 331 0
1 330 -217 0
1 -330 226 0
1 -330 -332 0
1 -323 -330 0
1 -323 -320 0
1 -323 -333 0
1 -323 225 0
1 -237 -334 0
1 237 -125 0
1 -237 -240 0
1 -235 244 0
1 -235 335 0
1 -235 -328 0
1 235 125 0
1 -235 -140 0
1 235 233 0
1 336 -335 0
1 -336 -328 0
1 -336 236 0
1 -336 240 0
1 245 336 0
1 245 337 0
1 -245 -159 0
1 245 -338 0
1 339 -336 0
1 339 254 0
1 -339 -329 0
1 -339 -340 0
1 -339 215 0
1 -328 -237 0
1 328 340 0
1 -328 341 0
1 -342 343 0
1 -342 -340 0
1 -342 115 0
1 -335 -237 0
1 -335 -344 0
1 335 329 0
1 -335 -342 0
1 -243 -152 0
1 -243 -236 0
1 -243 247 0
1 -341 -345 0
1 -254 -346 0
1 254 247 0
1 -254 339 0
1 -337 252 0
1 -337 -236 0
1 337 347 0
1 -236 -264 0
1 236 -252 0
1 236 251 0
1 345 336 0
1 345 338 0
1 -345 348 0
1 345 341 0
1 338 -336 0
1 -338 348 0
1 338 -340 0
1 -251 337 0
1 251 -249 0
1 -251 349 0
1 -251 -242 0
1 -251 -255 0
1 252 350 0
1 252 251 0
1 -262 351 0
1 -264 -346 0
1 -346 352 0
1 -346 353 0
1 -346 264 0
1 346 -354 0
1 346 -251 0
1 346 -341 0
1 -349 -352 0
1 349 355 0
1 349 -356 0
1 -357 -358 0
1 357 -252 0
1 357 355 0
1 -357 350 0
1 350 -352 0
1 -350 -359 0
1 -350 -360 0
1 -269 -260 0
1 -269 250 0
1 269 141 0
1 260 -170 0
1 -353 361 0
1 353 250 0
1 -351 -267 0
1 -351 -353 0
1 -351 250 0
1 351 -362 0
1 351 269 0
1 253 353 0
1 363 -355 0
1 -363 364 0
1 -363 365 0
1 -362 -163 0
1 -362 151 0
1 -362 355 0
1 -267 -275 0
1 366 -163 0
1 366 367 0
1 -366 263 0
1 366 -368 0
1 -368 268 0
1 368 250 0
1 -368 -367 0
1 -368 -369 0
1 370 -267 0
1 -370 371 0
1 -370 -372 0
1 259 353 0
1 -259 -370 0
1 -259 -354 0
1 -373 354 0
1 -373 372 0
1 -369 -371 0
1 -369 366 0
1 369 362 0
1 369 368 0
1 276 268 0
1 276 374 0
1 -279 375 0
1 279 -376 0
1 279 -282 0
1 -377 -283 0
1 377 -367 0
1 284 268 0
1 284 278 0
1 -284 376 0
1 284 282 0
1 -367 378 0
1 -367 -377 0
1 367 379 0
1 375 266 0
1 375 -379 0
1 268 -380 0
1 268 -377 0
1 -268 276 0
1 268 381 0
1 378 -382 0
1 383 -378 0
1 -384 385 0
1 384 -386 0
1 384 -387 0
1 -388 375 0
1 388 278 0
1 388 384 0
1 388 -386 0
1 -388 -387 0
1 382 -389 0
1 -382 -390 0
1 -382 384 0
1 387 -380 0
1 387 -391 0
1 -387 379 0
1 387 -263 0
1 -387 -284 0
1 278 384 0
1 -392 382 0
1 392 -393 0
1 389 -394 0
1 -389 -395 0
1 389 -396 0
1 -395 -385 0
1 -395 -386 0
1 393 273 0
1 386 -384 0
1 386 -395 0
1 386 392 0
1 -385 -389 0
1 385 390 0
1 298 -297 0
1 308 299 0
1 -397 -398 0
1 397 -399 0
1 -397 299 0
1 -400 401 0
1 402 397 0
1 402 298 0
1 402 297 0
1 -403 397 0
1 -403 404 0
1 -399 -289 0
1 311 -398 0
1 -405 -402 0
1 405 406 0
1 401 407 0
1 398 310 0
1 -398 401 0
1 408 318 0
1 408 308 0
1 -408 409 0
1 -408 -410 0
1 408 -401 0
1 408 -311 0
1 407 397 0
1 318 -398 0
1 318 183 0
1 -318 305 0
1 -310 -411 0
1 310 -312 0
1 310 -305 0
1 -310 185 0
1 321 -411 0
1 410 -304 0
1 410 -412 0
1 -410 312 0
1 -410 -408 0
1 -410 -305 0
1 -410 413 0
1 411 -405 0
1 411 -414 0
1 -406 405 0
1 -406 415 0
1 304 -409 0
1 -305 416 0
1 305 405 0
1 -305 -415 0
1 -305 -409 0
1 316 -238 0
1 -316 -412 0
1 316 -417 0
1 -316 319 0
1 316 -317 0
1 -316 -418 0
1 316 -413 0
1 -317 316 0
1 -317 309 0
1 419 -315 0
1 -419 211 0
1 -419 -411 0
1 -419 -412 0
1 -419 -420 0
1 419 421 0
1 -419 -422 0
1 -414 211 0
1 414 419 0
1 414 417 0
1 414 406 0
1 414 -418 0
1 417 423 0
1 -417 -331 0
1 -413 424 0
1 -413 425 0
1 -412 -423 0
1 -412 419 0
1 -412 424 0
1 -412 410 0
1 -334 -416 0
1 -334 325 0
1 333 -334 0
1 333 -415 0
1 -333 322 0
1 331 -336 0
1 -331 315 0
1 -331 -421 0
1 331 426 0
1 331 422 0
1 427 -417 0
1 427 -420 0
1 -427 -428 0
1 -421 427 0
1 -420 331 0
1 420 -429 0
1 -420 422 0
1 -422 430 0
1 422 431 0
1 432 -423 0
1 433 -434 0
1 433 -323 0
1 -435 -344 0
1 435 426 0
1 435 -436 0
1 435 341 0
1 -344 -437 0
1 344 -254 0
1 344 -438 0
1 -344 421 0
1 426 -439 0
1 426 -343 0
1 426 427 0
1 434 331 0
1 -434 -325 0
1 434 -435 0
1 -428 440 0
1 -428 -441 0
1 -428 -344 0
1 -428 -442 0
1 -428 443 0
1 -437 441 0
1 437 444 0
1 437 443 0
1 340 434 0
1 340 -335 0
1 -343 252 0
1 -343 441 0
1 343 339 0
1 -348 -445 0
1 348 446 0
1 348 426 0
1 -439 -447 0
1 -439 -332 0
1 -436 344 0
1 436 448 0
1 -436 -348 0
1 447 327 0
1 -447 -449 0
1 447 448 0
1 447 347 0
1 -447 348 0
1 332 330 0
1 -332 343 0
1 332 344 0
1 -332 -444 0
1 445 -450 0
1 445 -451 0
1 -445 -344 0
1 445 -332 0
1 -347 -337 0
1 -347 357 0
1 -347 338 0
1 -347 -444 0
1 -347 452 0
1 359 345 0
1 359 453 0
1 -359 -236 0
1 -359 -452 0
1 -454 -455 0
1 -454 -456 0
1 -454 -457 0
1 -454 350 0
1 -361 -353 0
1 -361 -458 0
1 -452 -359 0
1 452 348 0
1 -457 347 0
1 -457 348 0
1 -458 -361 0
1 458 -448 0
1 446 459 0
1 446 -335 0
1 446 -460 0
1 446 -461 0
1 -446 462 0
1 -446 448 0
1 355 456 0
1 355 -253 0
1 -355 -463 0
1 355 448 0
1 355 -363 0
1 352 -267 0
1 -352 357 0
1 -352 253 0
1 -352 -464 0
1 -352 452 0
1 465 -466 0
1 -465 -463 0
1 465 -356 0
1 -365 456 0
1 365 -463 0
1 -365 -360 0
1 365 -452 0
1 456 -463 0
1 -463 236 0
1 463 467 0
1 455 352 0
1 -455 -468 0
1 455 469 0
1 -464 -470 0
1 -464 -461 0
1 464 471 0
1 464 454 0
1 464 365 0
1 -374 358 0
1 374 -373 0
1 -374 360 0
1 -374 356 0
1 472 -358 0
1 -472 253 0
1 472 250 0
1 472 279 0
1 -473 456 0
1 -473 -364 0
1 -473 -474 0
1 474 466 0
1 474 475 0
1 474 -469 0
1 466 -465 0
1 -466 356 0
1 356 476 0
1 356 -374 0
1 356 474 0
1 356 472 0
1 358 465 0
1 -358 -467 0
1 358 -472 0
1 358 -365 0
1 371 378 0
1 371 -370 0
1 371 372 0
1 371 -477 0
1 -371 369 0
1 -372 -371 0
1 -372 383 0
1 372 477 0
1 381 -268 0
1 -381 -478 0
1 381 -376 0
1 -478 391 0
1 -477 -394 0
1 477 -391 0
1 475 473 0
1 -475 -479 0
1 364 -480 0
1 -364 -481 0
1 -364 372 0
1 364 -474 0
1 380 -481 0
1 -379 268 0
1 379 -482 0
1 -379 -479 0
1 -379 483 0
1 379 484 0
1 -394 -478 0
1 394 -482 0
1 -394 -485 0
1 -394 387 0
1 394 477 0
1 -391 478 0
1 391 485 0
1 485 -391 0
1 -485 379 0
1 484 -476 0
1 484 -379 0
1 -482 -380 0
1 -483 -394 0
1 409 486 0
1 -409 -398 0
1 487 -488 0
1 487 -489 0
1 -489 490 0
1 -489 491 0
1 489 492 0
1 -493 494 0
1 493 -400 0
1 493 -416 0
1 493 495 0
1 493 -496 0
1 -493 -409 0
1 -496 495 0
1 491 489 0
1 416 334 0
1 -416 490 0
1 416 497 0
1 -415 416 0
1 -415 490 0
1 415 304 0
1 -415 492 0
1 -415 -418 0
1 -494 -331 0
1 494 488 0
1 -494 -412 0
1 -494 -497 0
1 494 498 0
1 -495 493 0
1 -488 -494 0
1 488 497 0
1 488 -499 0
1 497 -423 0
1 497 487 0
1 497 415 0
1 490 486 0
1 -490 -500 0
1 490 -495 0
1 492 487 0
1 492 500 0
1 -492 495 0
1 -492 407 0
1 -492 415 0
1 -492 -501 0
1 492 489 0
1 -423 -497 0
1 -423 498 0
1 -423 -418 0
1 -423 422 0
1 424 -502 0
1 424 433 0
1 424 420 0
1 -429 -438 0
1 429 -498 0
1 -429 503 0
1 -438 -502 0
1 438 -425 0
1 -438 -504 0
1 -438 505 0
1 -506 507 0
1 -506 -498 0
1 -506 -443 0
1 506 431 0
1 -498 494 0
1 498 440 0
1 -498 438 0
1 498 406 0
1 -498 508 0
1 502 507 0
1 -502 -509 0
1 -502 -495 0
1 -431 437 0
1 431 441 0
1 -431 -420 0
1 431 421 0
1 -431 498 0
1 -431 -422 0
1 -441 506 0
1 441 498 0
1 -441 -503 0
1 443 -510 0
1 443 -437 0
1 -443 511 0
1 -443 512 0
1 443 -503 0
1 440 -437 0
1 440 -509 0
1 440 -513 0
1 -440 512 0
1 440 -425 0
1 504 514 0
1 -504 -451 0
1 504 438 0
1 -504 417 0
1 -504 431 0
1 -425 451 0
1 -513 440 0
1 513 -441 0
1 513 -431 0
1 513 503 0
1 -503 -515 0
1 -503 -507 0
1 -503 441 0
1 503 -418 0
1 -503 516 0
1 -503 -443 0
1 503 -431 0
1 -444 -430 0
1 -453 -510 0
1 -453 332 0
1 -517 442 0
1 517 -425 0
1 -451 504 0
1 451 442 0
1 -451 -425 0
1 -512 459 0
1 512 -451 0
1 512 440 0
1 -512 518 0
1 -510 -459 0
1 -510 -453 0
1 510 -448 0
1 -510 512 0
1 510 443 0
1 -511 -420 0
1 511 -519 0
1 430 520 0
1 -430 440 0
1 -430 443 0
1 -448 332 0
1 -448 436 0
1 450 -510 0
1 450 448 0
1 -450 512 0
1 462 521 0
1 -462 -512 0
1 459 522 0
1 -523 459 0
1 523 -521 0
1 523 524 0
1 521 -434 0
1 521 461 0
1 521 448 0
1 521 -523 0
1 -442 -525 0
1 442 526 0
1 -522 -525 0
1 -522 -517 0
1 -522 526 0
1 -522 -527 0
1 461 -449 0
1 -461 452 0
1 -528 529 0
1 -528 -446 0
1 -528 472 0
1 468 -473 0
1 -468 -449 0
1 468 525 0
1 468 -530 0
1 469 -521 0
1 -469 -468 0
1 -469 -464 0
1 469 531 0
1 530 -459 0
1 -530 -532 0
1 -530 461 0
1 530 -436 0
1 -530 -533 0
1 449 -534 0
1 449 -461 0
1 -449 535 0
1 -449 -469 0
1 -536 -332 0
1 -536 528 0
1 -529 -528 0
1 470 -455 0
1 470 -371 0
1 -470 -524 0
1 470 -449 0
1 -470 464 0
1 470 -467 0
1 470 531 0
1 -467 455 0
1 -467 449 0
1 467 537 0
1 -467 -464 0
1 534 358 0
1 -534 476 0
1 534 360 0
1 -534 -531 0
1 -533 538 0
1 -533 539 0
1 -537 -480 0
1 537 -469 0
1 -531 540 0
1 -460 -540 0
1 -460 -532 0
1 460 -446 0
1 -460 -541 0
1 -481 -539 0
1 -481 -380 0
1 481 542 0
1 -481 479 0
1 481 364 0
1 479 543 0
1 479 471 0
1 480 537 0
1 -544 364 0
1 -539 533 0
1 542 -480 0
1 -538 -481 0
1 538 533 0
1 471 534 0
1 -471 533 0
1 -499 545 0
1 -499 -546 0
1 499 497 0
1 -500 -488 0
1 -547 546 0
1 -509 -546 0
1 -509 548 0
1 509 -440 0
1 546 507 0
1 549 508 0
1 545 550 0
1 508 548 0
1 508 502 0
1 508 -551 0
1 507 -508 0
1 -507 -498 0
1 -516 -549 0
1 516 -552 0
1 516 503 0
1 -515 501 0
1 -515 -516 0
1 -515 553 0
1 551 554 0
1 553 -555 0
1 553 509 0
1 553 -556 0
1 -548 -507 0
1 -548 557 0
1 -548 501 0
1 -501 -492 0
1 -501 558 0
1 556 -504 0
1 556 -553 0
1 514 -551 0
1 514 -513 0
1 -514 -425 0
1 519 -559 0
1 -519 -560 0
1 555 -430 0
1 555 553 0
1 561 515 0
1 561 562 0
1 561 516 0
1 552 563 0
1 -552 519 0
1 564 -565 0
1 -564 563 0
1 -566 -555 0
1 -566 514 0
1 566 -564 0
1 -566 -563 0
1 566 -567 0
1 -566 -519 0
1 -566 -505 0
1 -566 -568 0
1 -518 559 0
1 518 -442 0
1 518 -569 0
1 527 -522 0
1 -527 560 0
1 -525 468 0
1 525 570 0
1 525 552 0
1 -525 560 0
1 -525 569 0
1 526 -522 0
1 559 -504 0
1 559 571 0
1 -559 -527 0
1 -569 572 0
1 -569 425 0
1 -569 -519 0
1 569 -573 0
1 569 527 0
1 574 513 0
1 -574 575 0
1 -574 -526 0
1 560 518 0
1 -560 519 0
1 -524 576 0
1 524 570 0
1 -524 442 0
1 524 523 0
1 -573 -529 0
1 -573 -467 0
1 573 -577 0
1 572 -578 0
1 -572 -579 0
1 -572 580 0
1 572 -559 0
1 -571 580 0
1 -571 570 0
1 -571 -533 0
1 -571 -579 0
1 571 -569 0
1 581 -572 0
1 581 -524 0
1 581 -535 0
1 -576 -572 0
1 576 -535 0
1 576 526 0
1 570 582 0
1 570 572 0
1 -520 -526 0
1 532 -529 0
1 -532 -581 0
1 532 -535 0
1 535 578 0
1 -535 -529 0
1 535 -460 0
1 535 536 0
1 540 582 0
1 -540 -583 0
1 -540 531 0
1 -541 544 0
1 -541 581 0
1 580 571 0
1 583 -532 0
1 583 572 0
1 -583 -541 0
1 578 -532 0
1 557 584 0
1 -557 501 0
1 557 554 0
1 567 585 0
1 586 587 0
1 -586 -567 0
1 -588 589 0
1 -588 567 0
1 588 577 0
1 584 -554 0
1 -590 557 0
1 591 -550 0
1 -563 -552 0
1 -577 587 0
1 577 584 0
1 -575 588 0
1 575 587 0
1 575 565 0
1 575 574 0
1 -575 -584 0
1 -587 592 0
1 587 589 0
1 -587 -593 0
1 -587 -586 0
1 594 582 0
1 -594 -563 0
1 -594 -575 0
1 594 586 0
1 -585 589 0
1 -585 -567 0
1 -558 563 0
1 -592 -520 0
1 592 574 0
1 592 560 0
1 593 -565 0
1 582 565 0
1 595 587 0
1 -595 -565 0
1 -595 568 0
1 -595 -596 0
1 562 -582 0
1 -562 592 0
1 -562 589 0
1 562 575 0
1 596 -589 0
1 -596 552 0
1 -565 -595 0
1 568 -589 0
1 568 -566 0
